c FILE: queen8_8.col
c Translated from Stanford GraphBase File: queen8_8.gb
c Stanford GraphBase ID: gunion(board(8,8,0,0,-1,0,0),board(8,8,0,0,-2,0,0),0,0)
p edge 64 1456
e 2 1
e 3 1
e 3 2
e 4 1
e 4 2
e 4 3
e 5 1
e 5 2
e 5 3
e 5 4
e 6 1
e 6 2
e 6 3
e 6 4
e 6 5
e 7 1
e 7 2
e 7 3
e 7 4
e 7 5
e 7 6
e 8 1
e 8 2
e 8 3
e 8 4
e 8 5
e 8 6
e 8 7
e 9 1
e 9 2
e 10 1
e 10 2
e 10 3
e 10 9
e 11 2
e 11 3
e 11 4
e 11 9
e 11 10
e 12 3
e 12 4
e 12 5
e 12 9
e 12 10
e 12 11
e 13 4
e 13 5
e 13 6
e 13 9
e 13 10
e 13 11
e 13 12
e 14 5
e 14 6
e 14 7
e 14 9
e 14 10
e 14 11
e 14 12
e 14 13
e 15 6
e 15 7
e 15 8
e 15 9
e 15 10
e 15 11
e 15 12
e 15 13
e 15 14
e 16 7
e 16 8
e 16 9
e 16 10
e 16 11
e 16 12
e 16 13
e 16 14
e 16 15
e 17 1
e 17 3
e 17 9
e 17 10
e 18 2
e 18 4
e 18 9
e 18 10
e 18 11
e 18 17
e 19 1
e 19 3
e 19 5
e 19 10
e 19 11
e 19 12
e 19 17
e 19 18
e 20 2
e 20 4
e 20 6
e 20 11
e 20 12
e 20 13
e 20 17
e 20 18
e 20 19
e 21 3
e 21 5
e 21 7
e 21 12
e 21 13
e 21 14
e 21 17
e 21 18
e 21 19
e 21 20
e 22 4
e 22 6
e 22 8
e 22 13
e 22 14
e 22 15
e 22 17
e 22 18
e 22 19
e 22 20
e 22 21
e 23 5
e 23 7
e 23 14
e 23 15
e 23 16
e 23 17
e 23 18
e 23 19
e 23 20
e 23 21
e 23 22
e 24 6
e 24 8
e 24 15
e 24 16
e 24 17
e 24 18
e 24 19
e 24 20
e 24 21
e 24 22
e 24 23
e 25 1
e 25 4
e 25 9
e 25 11
e 25 17
e 25 18
e 26 2
e 26 5
e 26 10
e 26 12
e 26 17
e 26 18
e 26 19
e 26 25
e 27 3
e 27 6
e 27 9
e 27 11
e 27 13
e 27 18
e 27 19
e 27 20
e 27 25
e 27 26
e 28 1
e 28 4
e 28 7
e 28 10
e 28 12
e 28 14
e 28 19
e 28 20
e 28 21
e 28 25
e 28 26
e 28 27
e 29 2
e 29 5
e 29 8
e 29 11
e 29 13
e 29 15
e 29 20
e 29 21
e 29 22
e 29 25
e 29 26
e 29 27
e 29 28
e 30 3
e 30 6
e 30 12
e 30 14
e 30 16
e 30 21
e 30 22
e 30 23
e 30 25
e 30 26
e 30 27
e 30 28
e 30 29
e 31 4
e 31 7
e 31 13
e 31 15
e 31 22
e 31 23
e 31 24
e 31 25
e 31 26
e 31 27
e 31 28
e 31 29
e 31 30
e 32 5
e 32 8
e 32 14
e 32 16
e 32 23
e 32 24
e 32 25
e 32 26
e 32 27
e 32 28
e 32 29
e 32 30
e 32 31
e 33 1
e 33 5
e 33 9
e 33 12
e 33 17
e 33 19
e 33 25
e 33 26
e 34 2
e 34 6
e 34 10
e 34 13
e 34 18
e 34 20
e 34 25
e 34 26
e 34 27
e 34 33
e 35 3
e 35 7
e 35 11
e 35 14
e 35 17
e 35 19
e 35 21
e 35 26
e 35 27
e 35 28
e 35 33
e 35 34
e 36 4
e 36 8
e 36 9
e 36 12
e 36 15
e 36 18
e 36 20
e 36 22
e 36 27
e 36 28
e 36 29
e 36 33
e 36 34
e 36 35
e 37 1
e 37 5
e 37 10
e 37 13
e 37 16
e 37 19
e 37 21
e 37 23
e 37 28
e 37 29
e 37 30
e 37 33
e 37 34
e 37 35
e 37 36
e 38 2
e 38 6
e 38 11
e 38 14
e 38 20
e 38 22
e 38 24
e 38 29
e 38 30
e 38 31
e 38 33
e 38 34
e 38 35
e 38 36
e 38 37
e 39 3
e 39 7
e 39 12
e 39 15
e 39 21
e 39 23
e 39 30
e 39 31
e 39 32
e 39 33
e 39 34
e 39 35
e 39 36
e 39 37
e 39 38
e 40 4
e 40 8
e 40 13
e 40 16
e 40 22
e 40 24
e 40 31
e 40 32
e 40 33
e 40 34
e 40 35
e 40 36
e 40 37
e 40 38
e 40 39
e 41 1
e 41 6
e 41 9
e 41 13
e 41 17
e 41 20
e 41 25
e 41 27
e 41 33
e 41 34
e 42 2
e 42 7
e 42 10
e 42 14
e 42 18
e 42 21
e 42 26
e 42 28
e 42 33
e 42 34
e 42 35
e 42 41
e 43 3
e 43 8
e 43 11
e 43 15
e 43 19
e 43 22
e 43 25
e 43 27
e 43 29
e 43 34
e 43 35
e 43 36
e 43 41
e 43 42
e 44 4
e 44 12
e 44 16
e 44 17
e 44 20
e 44 23
e 44 26
e 44 28
e 44 30
e 44 35
e 44 36
e 44 37
e 44 41
e 44 42
e 44 43
e 45 5
e 45 9
e 45 13
e 45 18
e 45 21
e 45 24
e 45 27
e 45 29
e 45 31
e 45 36
e 45 37
e 45 38
e 45 41
e 45 42
e 45 43
e 45 44
e 46 1
e 46 6
e 46 10
e 46 14
e 46 19
e 46 22
e 46 28
e 46 30
e 46 32
e 46 37
e 46 38
e 46 39
e 46 41
e 46 42
e 46 43
e 46 44
e 46 45
e 47 2
e 47 7
e 47 11
e 47 15
e 47 20
e 47 23
e 47 29
e 47 31
e 47 38
e 47 39
e 47 40
e 47 41
e 47 42
e 47 43
e 47 44
e 47 45
e 47 46
e 48 3
e 48 8
e 48 12
e 48 16
e 48 21
e 48 24
e 48 30
e 48 32
e 48 39
e 48 40
e 48 41
e 48 42
e 48 43
e 48 44
e 48 45
e 48 46
e 48 47
e 49 1
e 49 7
e 49 9
e 49 14
e 49 17
e 49 21
e 49 25
e 49 28
e 49 33
e 49 35
e 49 41
e 49 42
e 50 2
e 50 8
e 50 10
e 50 15
e 50 18
e 50 22
e 50 26
e 50 29
e 50 34
e 50 36
e 50 41
e 50 42
e 50 43
e 50 49
e 51 3
e 51 11
e 51 16
e 51 19
e 51 23
e 51 27
e 51 30
e 51 33
e 51 35
e 51 37
e 51 42
e 51 43
e 51 44
e 51 49
e 51 50
e 52 4
e 52 12
e 52 20
e 52 24
e 52 25
e 52 28
e 52 31
e 52 34
e 52 36
e 52 38
e 52 43
e 52 44
e 52 45
e 52 49
e 52 50
e 52 51
e 53 5
e 53 13
e 53 17
e 53 21
e 53 26
e 53 29
e 53 32
e 53 35
e 53 37
e 53 39
e 53 44
e 53 45
e 53 46
e 53 49
e 53 50
e 53 51
e 53 52
e 54 6
e 54 9
e 54 14
e 54 18
e 54 22
e 54 27
e 54 30
e 54 36
e 54 38
e 54 40
e 54 45
e 54 46
e 54 47
e 54 49
e 54 50
e 54 51
e 54 52
e 54 53
e 55 1
e 55 7
e 55 10
e 55 15
e 55 19
e 55 23
e 55 28
e 55 31
e 55 37
e 55 39
e 55 46
e 55 47
e 55 48
e 55 49
e 55 50
e 55 51
e 55 52
e 55 53
e 55 54
e 56 2
e 56 8
e 56 11
e 56 16
e 56 20
e 56 24
e 56 29
e 56 32
e 56 38
e 56 40
e 56 47
e 56 48
e 56 49
e 56 50
e 56 51
e 56 52
e 56 53
e 56 54
e 56 55
e 57 1
e 57 8
e 57 9
e 57 15
e 57 17
e 57 22
e 57 25
e 57 29
e 57 33
e 57 36
e 57 41
e 57 43
e 57 49
e 57 50
e 58 2
e 58 10
e 58 16
e 58 18
e 58 23
e 58 26
e 58 30
e 58 34
e 58 37
e 58 42
e 58 44
e 58 49
e 58 50
e 58 51
e 58 57
e 59 3
e 59 11
e 59 19
e 59 24
e 59 27
e 59 31
e 59 35
e 59 38
e 59 41
e 59 43
e 59 45
e 59 50
e 59 51
e 59 52
e 59 57
e 59 58
e 60 4
e 60 12
e 60 20
e 60 28
e 60 32
e 60 33
e 60 36
e 60 39
e 60 42
e 60 44
e 60 46
e 60 51
e 60 52
e 60 53
e 60 57
e 60 58
e 60 59
e 61 5
e 61 13
e 61 21
e 61 25
e 61 29
e 61 34
e 61 37
e 61 40
e 61 43
e 61 45
e 61 47
e 61 52
e 61 53
e 61 54
e 61 57
e 61 58
e 61 59
e 61 60
e 62 6
e 62 14
e 62 17
e 62 22
e 62 26
e 62 30
e 62 35
e 62 38
e 62 44
e 62 46
e 62 48
e 62 53
e 62 54
e 62 55
e 62 57
e 62 58
e 62 59
e 62 60
e 62 61
e 63 7
e 63 9
e 63 15
e 63 18
e 63 23
e 63 27
e 63 31
e 63 36
e 63 39
e 63 45
e 63 47
e 63 54
e 63 55
e 63 56
e 63 57
e 63 58
e 63 59
e 63 60
e 63 61
e 63 62
e 64 1
e 64 8
e 64 10
e 64 16
e 64 19
e 64 24
e 64 28
e 64 32
e 64 37
e 64 40
e 64 46
e 64 48
e 64 55
e 64 56
e 64 57
e 64 58
e 64 59
e 64 60
e 64 61
e 64 62
e 64 63
